120 150
1 42 2 3 5 6 7 8 10 11 14 15 17 22 23 27 30 33 34 40 44 49 50 51 52 54 59 60 61 63 75 77 78 81 82 83 84 87 89 93 96 100 101 104 106 109 110 111 115 120
2 69 3 5 6 7 8 10 11 14 15 16 17 21 22 23 24 26 27 28 30 32 33 34 36 37 38 39 40 41 43 44 45 46 49 50 51 52 53 54 58 59 60 61 63 64 66 71 73 75 76 77 78 79 81 82 83 84 86 87 89 92 93 96 97 98 99 100 101 102 104 105 106 108 109 110 111 113 114 115 116 118 119 120
3 67 5 6 7 8 10 11 14 15 16 17 21 22 23 24 26 27 28 30 32 33 34 36 37 38 39 40 41 43 44 45 49 50 51 52 53 54 58 59 60 61 63 64 66 71 73 75 76 77 78 79 81 82 83 84 86 87 89 92 93 96 97 98 99 100 101 102 104 105 106 108 109 110 111 113 114 115 116 118 119 120
4 57 115
5 93 6 7 8 10 11 12 14 15 16 17 19 21 22 23 24 26 27 28 29 30 31 32 33 34 35 36 37 38 39 40 41 42 43 44 45 46 47 49 50 51 52 53 54 55 56 57 58 59 60 61 62 63 64 65 66 67 71 72 73 75 76 77 78 79 81 82 83 84 85 86 87 89 90 91 92 93 95 96 97 98 99 100 101 102 104 105 106 107 108 109 110 111 113 114 115 116 118 119 120
6 90 7 8 10 11 14 15 16 17 21 22 23 24 26 27 28 30 32 33 34 36 37 38 39 40 41 43 44 45 49 50 51 52 53 54 58 59 60 61 63 64 66 71 73 75 76 77 78 79 81 82 83 84 86 87 89 92 93 96 97 98 99 100 101 102 104 105 106 108 109 110 111 113 114 115 116 118 119 120
7 38 8 10 11 14 15 16 17 21 22 23 24 26 27 28 30 32 33 34 36 37 38 39 40 43 44 45 49 50 51 52 53 54 59 60 61 63 64 66 71 73 75 76 77 78 79 81 82 83 84 86 87 89 92 93 96 97 98 99 100 101 102 104 105 106 108 109 110 111 113 114 115 116 118 119 120
8 36 10 11 12 14 15 16 17 21 22 23 24 26 27 28 29 30 31 32 33 34 36 37 38 39 40 41 43 44 45 46 47 49 50 51 52 53 54 58 59 60 61 62 63 64 65 66 67 71 73 75 76 77 78 79 81 82 83 84 85 86 87 89 91 92 93 95 96 97 98 99 100 101 102 104 105 106 107 108 109 110 111 113 114 115 116 118 119 120
9 45 10 14 23 33 40 44 59 60 63 78 82 84 96 115
10 42 11 12 13 14 15 16 17 18 19 20 21 22 23 24 25 26 27 28 29 30 31 32 33 34 35 36 37 38 39 40 41 42 43 44 45 46 47 48 49 50 51 52 53 54 55 56 57 58 59 60 61 62 63 64 65 66 67 68 69 71 72 73 74 75 76 77 78 79 80 81 82 83 84 85 86 87 88 89 90 91 92 93 94 95 96 97 98 99 100 101 102 103 104 105 106 107 108 109 110 111 112 113 114 115 116 118 119 120
11 33 12 14 15 16 17 21 22 23 24 26 27 28 29 30 31 32 33 34 36 37 38 39 40 41 43 44 45 46 47 49 50 51 52 53 54 58 59 60 61 62 63 64 66 67 71 73 75 76 77 78 79 81 82 83 84 86 87 89 91 92 93 96 97 98 99 100 101 102 104 105 106 107 108 109 110 111 113 114 115 116 118 119 120
12 79 14 15 17 23 27 30 33 34 40 44 49 50 52 54 59 60 61 63 75 77 78 81 82 83 84 87 89 93 96 100 101 110 115 120
13 27 59 63 115
14 57 15 16 17 18 19 20 21 22 23 24 25 26 27 28 29 30 31 32 33 34 35 36 37 38 39 40 41 42 43 44 45 46 47 48 49 50 51 52 53 54 55 56 57 58 59 60 61 62 63 64 65 66 67 68 69 71 72 73 74 75 76 77 78 79 80 81 82 83 84 85 86 87 89 90 91 92 93 95 96 97 98 99 100 101 102 104 105 106 107 108 109 110 111 112 113 114 115 116 118 119 120
15 44 16 17 21 22 23 24 26 27 28 29 30 31 32 33 34 36 37 38 39 40 41 43 44 45 46 47 49 50 51 52 53 54 58 59 60 61 62 63 64 65 66 67 71 73 75 76 77 78 79 81 82 83 84 85 86 87 89 91 92 93 95 96 97 98 99 100 101 102 104 105 106 107 108 109 110 111 113 114 115 116 118 119 120
16 84 17 21 22 23 26 27 30 33 34 36 37 40 44 49 50 51 52 54 59 60 61 63 64 66 75 76 77 78 79 81 82 83 84 86 87 89 93 96 97 100 101 102 104 105 106 108 109 110 111 113 115 116 118 119 120
17 86 21 22 23 24 26 27 28 29 30 31 32 33 34 36 37 38 39 40 41 43 44 45 46 47 49 50 51 52 53 54 58 59 60 61 62 63 64 65 66 67 71 73 75 76 77 78 79 81 82 83 84 85 86 87 89 91 92 93 95 96 97 98 99 100 101 102 104 105 106 107 108 109 110 111 113 114 115 116 118 119 120
18 92 23 33 40 44 59 60 63 78 82 84 96 115
19 46 23 33 40 44 49 59 60 63 78 82 84 96 100 115 120
20 38 59 63 78 84 96 115
21 85 22 23 26 27 30 33 34 36 37 40 44 49 50 51 52 54 59 60 61 63 64 66 75 76 77 78 79 81 82 83 84 86 87 89 93 96 97 100 101 102 104 105 106 108 109 110 111 113 115 116 118 119 120
22 33 23 24 26 27 28 30 32 33 34 36 37 38 39 40 41 43 44 45 49 50 51 52 53 54 58 59 60 61 63 64 66 71 73 75 76 77 78 79 81 82 83 84 86 87 89 92 93 96 97 98 99 100 101 102 104 105 106 108 109 110 111 113 114 115 116 118 119 120
23 82 24 25 26 27 28 29 30 31 32 33 34 35 36 37 38 39 40 41 42 43 44 45 46 47 49 50 51 52 53 54 55 56 57 58 59 60 61 62 63 64 65 66 67 68 71 72 73 74 75 76 77 78 79 80 81 82 83 84 85 86 87 89 90 91 92 93 95 96 97 98 99 100 101 102 104 105 106 107 108 109 110 111 112 113 114 115 116 118 119 120
24 73 27 30 33 34 40 44 49 50 52 54 59 60 61 63 75 77 78 81 82 83 84 87 89 93 96 100 101 110 115 120
25 49 33 40 59 60 63 78 82 84 96 115
26 70 27 30 33 34 36 37 39 40 43 44 49 50 51 52 54 59 60 61 63 64 66 73 75 76 77 78 79 81 82 83 84 86 87 89 92 93 96 97 98 99 100 101 102 104 105 106 108 109 110 111 113 115 116 118 119 120
27 59 28 29 30 31 32 33 34 36 37 38 39 40 41 43 44 45 46 47 49 50 51 52 53 54 58 59 60 61 62 63 64 65 66 67 71 73 75 76 77 78 79 81 82 83 84 86 87 89 91 92 93 96 97 98 99 100 101 102 104 105 106 107 108 109 110 111 113 114 115 116 118 119 120
28 23 30 33 34 40 44 49 50 52 54 59 60 61 63 75 77 78 81 82 83 84 87 89 93 96 100 101 110 115 120
29 57 33 40 44 49 52 54 59 60 61 63 78 82 84 87 89 93 96 100 110 115 120
30 72 31 32 33 34 36 37 38 39 40 41 43 44 45 46 49 50 51 52 53 54 58 59 60 61 63 64 66 71 73 75 76 77 78 79 81 82 83 84 86 87 89 92 93 96 97 98 99 100 101 102 104 105 106 108 109 110 111 113 114 115 116 118 119 120
31 74 33 40 44 49 50 52 54 59 60 61 63 75 78 81 82 84 87 89 93 96 100 101 110 115 120
32 69 33 34 40 44 49 50 52 54 59 60 61 63 75 77 78 81 82 83 84 87 89 93 96 100 101 104 106 109 110 111 115 120
33 33 34 35 36 37 38 39 40 41 42 43 44 45 46 47 49 50 51 52 53 54 55 56 57 58 59 60 61 62 63 64 65 66 67 68 71 72 73 74 75 76 77 78 79 80 81 82 83 84 85 86 87 89 90 91 92 93 95 96 97 98 99 100 101 102 104 105 106 107 108 109 110 111 112 113 114 115 116 118 119 120
34 42 36 37 38 39 40 41 43 44 45 46 49 50 51 52 53 54 58 59 60 61 63 64 66 71 73 75 76 77 78 79 81 82 83 84 86 87 89 92 93 96 97 98 99 100 101 102 104 105 106 108 109 110 111 113 114 115 116 118 119 120
35 28 40 44 49 59 60 63 78 82 84 96 100 115 120
36 46 37 40 43 44 49 50 51 52 54 59 60 61 63 64 66 73 75 76 77 78 79 81 82 83 84 86 87 89 93 96 97 98 100 101 102 104 105 106 108 109 110 111 113 115 116 118 119 120
37 30 40 44 49 50 51 52 54 59 60 61 63 64 66 75 76 77 78 79 81 82 83 84 86 87 89 93 96 97 100 101 102 104 105 106 108 109 110 111 113 115 118 119 120
38 64 40 44 49 50 52 54 59 60 61 63 75 77 78 81 82 83 84 87 89 93 96 100 101 110 115 120
39 29 40 44 49 50 51 52 54 59 60 61 63 75 77 78 81 82 83 84 87 89 93 96 100 101 104 106 109 110 111 115 120
40 74 41 42 43 44 45 46 47 49 50 51 52 53 54 55 56 57 58 59 60 61 62 63 64 65 66 67 68 71 72 73 74 75 76 77 78 79 80 81 82 83 84 85 86 87 89 90 91 92 93 95 96 97 98 99 100 101 102 104 105 106 107 108 109 110 111 112 113 114 115 116 118 119 120
41 41 44 49 50 52 54 59 60 61 63 75 77 78 81 82 83 84 87 89 93 96 100 101 110 115 120
42 49 44 59 60 63 78 82 84 96 115
43 55 44 49 50 51 52 54 59 60 61 63 64 75 77 78 81 82 83 84 87 89 93 96 97 100 101 104 106 109 110 111 113 115 120
44 98 45 46 47 49 50 51 52 53 54 55 56 57 58 59 60 61 62 63 64 65 66 67 71 72 73 74 75 76 77 78 79 81 82 83 84 85 86 87 89 90 91 92 93 95 96 97 98 99 100 101 102 104 105 106 107 108 109 110 111 113 114 115 116 118 119 120
45 80 49 50 52 54 59 60 61 63 75 77 78 81 82 83 84 87 89 93 96 100 101 110 115 120
46 32 49 50 52 54 59 60 61 63 75 77 78 81 82 83 84 87 89 93 96 100 101 110 115 120
47 25 49 52 54 59 60 63 78 82 84 93 96 100 115 120
48 38 59 63 78 84 96 115
49 82 50 51 52 53 54 55 57 58 59 60 61 62 63 64 65 66 67 71 72 73 75 76 77 78 79 81 82 83 84 85 86 87 89 90 91 92 93 95 96 97 98 99 100 101 102 104 105 106 107 108 109 110 111 113 114 115 116 118 119 120
50 30 51 52 53 54 58 59 60 61 63 64 66 71 73 75 76 77 78 79 81 82 83 84 86 87 89 92 93 96 97 98 99 100 101 102 104 105 106 108 109 110 111 113 114 115 116 118 119 120
51 35 52 54 59 60 61 63 64 66 73 75 76 77 78 79 81 82 83 84 86 87 89 92 93 96 97 98 99 100 101 102 104 105 106 108 109 110 111 113 115 116 118 119 120
52 39 53 54 58 59 60 61 62 63 64 65 66 67 71 73 75 76 77 78 79 81 82 83 84 86 87 89 91 92 93 96 97 98 99 100 101 102 104 105 106 107 108 109 110 111 113 114 115 116 118 119 120
53 57 54 59 60 61 63 75 77 78 81 82 83 84 87 89 93 96 100 101 110 115 120
54 84 58 59 60 61 62 63 64 65 66 67 71 73 75 76 77 78 79 81 82 83 84 85 86 87 89 91 92 93 95 96 97 98 99 100 101 102 104 105 106 107 108 109 110 111 113 114 115 116 118 119 120
55 62 59 60 63 78 82 84 96 100 115 120
56 50 59 60 63 78 82 84 96 115
57 55 59 60 63 78 82 84 96 100 115 120
58 27 59 60 61 63 75 77 78 81 82 83 84 87 89 93 96 100 101 110 115 120
59 30 60 61 62 63 64 65 66 67 68 69 71 72 73 74 75 76 77 78 79 80 81 82 83 84 85 86 87 88 89 90 91 92 93 94 95 96 97 98 99 100 101 102 103 104 105 106 107 108 109 110 111 112 113 114 115 116 118 119 120
60 36 61 62 63 64 65 66 67 68 71 72 73 74 75 76 77 78 79 81 82 83 84 85 86 87 89 90 91 92 93 95 96 97 98 99 100 101 102 104 105 106 107 108 109 110 111 112 113 114 115 116 118 119 120
61 20 63 64 66 71 73 75 76 77 78 79 81 82 83 84 86 87 89 92 93 96 97 98 99 100 101 102 104 105 106 108 109 110 111 113 114 115 116 118 119 120
62 78 63 78 82 84 93 96 100 115 120
63 47 64 65 66 67 68 69 70 71 72 73 74 75 76 77 78 79 80 81 82 83 84 85 86 87 88 89 90 91 92 93 94 95 96 97 98 99 100 101 102 103 104 105 106 107 108 109 110 111 112 113 114 115 116 117 118 119 120
64 26 66 73 75 76 77 78 79 81 82 83 84 86 87 89 93 96 97 98 99 100 101 102 104 105 106 108 109 110 111 113 115 116 118 119 120
65 45 78 82 84 96 100 115 120
66 41 73 75 76 77 78 79 81 82 83 84 86 87 89 93 96 97 98 100 101 102 104 105 106 108 109 110 111 113 115 116 118 119 120
67 58 78 82 84 93 96 100 115 120
68 98 78 82 84 96 115
69 91 78 84 96 115
70 96 115
71 73 75 77 78 81 82 83 84 87 89 93 96 100 101 104 106 110 111 115 120
72 84 78 82 84 96 100 115 120
73 37 75 77 78 79 81 82 83 84 86 87 89 93 96 97 100 101 104 106 109 110 111 113 115 118 120
74 93 78 82 84 96 115
75 91 76 77 78 79 81 82 83 84 86 87 89 92 93 96 97 98 99 100 101 102 104 105 106 108 109 110 111 113 114 115 116 118 119 120
76 43 77 78 79 81 82 83 84 86 87 89 93 96 97 100 101 102 104 105 106 108 109 110 111 113 115 116 118 119 120
77 73 78 79 81 82 83 84 86 87 89 92 93 96 97 98 99 100 101 102 104 105 106 108 109 110 111 113 114 115 116 118 119 120
78 85 79 80 81 82 83 84 85 86 87 89 90 91 92 93 94 95 96 97 98 99 100 101 102 103 104 105 106 107 108 109 110 111 112 113 114 115 116 118 119 120
79 81 81 82 83 84 86 87 89 93 96 97 98 100 101 102 104 105 106 108 109 110 111 113 115 116 118 119 120
80 79 84 96 115
81 71 82 83 84 86 87 89 92 93 96 97 98 99 100 101 102 104 105 106 108 109 110 111 113 114 115 116 118 119 120
82 80 83 84 85 86 87 89 90 91 92 93 95 96 97 98 99 100 101 102 104 105 106 107 108 109 110 111 112 113 114 115 116 118 119 120
83 76 84 86 87 89 92 93 96 97 98 99 100 101 102 104 105 106 108 109 110 111 113 114 115 116 118 119 120
84 83 85 86 87 89 90 91 92 93 95 96 97 98 99 100 101 102 104 105 106 107 108 109 110 111 112 113 114 115 116 118 119 120
85 41 96 100 115 120
86 78 87 89 93 96 97 98 100 101 102 104 105 106 108 109 110 111 113 115 116 118 119 120
87 70 89 91 92 93 96 97 98 99 100 101 102 104 105 106 107 108 109 110 111 113 114 115 116 118 119 120
88 23 115
89 42 91 92 93 96 97 98 99 100 101 102 104 105 106 108 109 110 111 113 114 115 116 118 119 120
90 87 96 100 115 120
91 43 93 96 100 110 115 120
92 84 93 96 100 101 104 106 109 110 111 115 120
93 60 96 97 98 99 100 101 102 104 105 106 107 108 109 110 111 113 114 115 116 118 119 120
94 55 96 115
95 49 96 100 115 120
96 78 97 98 99 100 101 102 103 104 105 106 107 108 109 110 111 112 113 114 115 116 118 119 120
97 73 98 100 101 102 104 105 106 108 109 110 111 113 115 116 118 119 120
98 62 100 101 104 106 109 110 111 113 115 118 120
99 36 100 101 104 106 109 110 111 115 120
100 44 101 102 104 105 106 107 108 109 110 111 113 114 115 116 118 119 120
101 94 102 104 105 106 108 109 110 111 113 114 115 116 118 119 120
102 69 104 105 106 108 109 110 111 113 115 118 119 120
103 32 115
104 96 105 106 108 109 110 111 113 115 116 118 119 120
105 70 106 108 109 110 111 113 115 116 118 119 120
106 84 108 109 110 111 113 115 116 118 119 120
107 58 110 115 120
108 78 109 110 111 113 115 118 119 120
109 25 110 111 113 115 116 118 119 120
110 80 111 113 114 115 116 118 119 120
111 58 113 115 116 118 119 120
112 66 115
113 83 115 116 118 119 120
114 24 115 120
115 98 116 117 118 119 120
116 60 118 120
117 42
118 43 119 120
119 43 120
120 39
